OL 2500 DD_pt -2194 49079 24526 32908 29384 33382 22659 22219 25007 21978 19382 23440 33914 14036 20748 34278 28229 20203 26402 21000 31799 18428 31105 30918 33473 28570 22677 23889 24862 33297 30653 22579 -1032 21873 10533 27341 24037 22329 10199 -2219 18102 -2717 30586 19852 17660 20949 21331 29229 31735 27405

OL 2500 DD -2201 44708 28873 26275 34324 38711 23299 37213 25272 39000 38145 21367 23845 34245 24795 38605 34048 38418 36690 32906 27719 29132 31996 25088 30144 17727 32183 45092 44037 36253 40652 27448 -1026 19934 23501 27251 27933 27352 23472 -2243 23209 -2703 38483 28284 19680 29522 25378 33122 35159 39863

OL 2500 random -2184 35031 28601 38855 36192 28747 27377 35705 26690 33072 35640 33875 28211 31586 25661 24065 43870 35234 34676 34233 48357 29203 31111 27191 38506 24220 24224 35440 38372 24877 42415 33373 -1021 33378 30867 34896 31206 36520 25374 -2242 31959 -2926 32709 25316 32128 27144 33922 39609 36907 30883

